CPXPARAM_Read_DataCheck                          1
Found incumbent of value 0.000000 after 0.00 sec. (0.13 ticks)
Tried aggregator 1 time.
MIP Presolve modified 1 coefficients.
Reduced MIP has 1017 rows, 5005 columns, and 25017 nonzeros.
Reduced MIP has 5005 binaries, 0 generals, 0 SOSs, and 0 indicators.
Presolve time = 0.02 sec. (10.53 ticks)
Probing time = 0.02 sec. (5.93 ticks)
Tried aggregator 1 time.
Reduced MIP has 1017 rows, 5005 columns, and 25017 nonzeros.
Reduced MIP has 5005 binaries, 0 generals, 0 SOSs, and 0 indicators.
Presolve time = 0.02 sec. (12.44 ticks)
Probing time = 0.02 sec. (5.62 ticks)
Clique table members: 16064.
MIP emphasis: balance optimality and feasibility.
MIP search method: dynamic search.
Parallel mode: deterministic, using up to 4 threads.
Root relaxation solution time = 0.05 sec. (47.69 ticks)

        Nodes                                         Cuts/
   Node  Left     Objective  IInf  Best Integer    Best Bound    ItCnt     Gap

*     0+    0                            0.0000    30972.0000              --- 
*     0+    0                         6400.0000    30972.0000           383.94%
      0     0    10527.3920     5     6400.0000    10527.3920     1388   64.49%
*     0+    0                         7323.0000    10527.3920            43.76%
      0     0     9592.4648   211     7323.0000     Cuts: 354     1796   26.42%
*     0+    0                         7394.0000     9257.6787            25.21%
      0     0        cutoff           7394.0000     7394.0000     2515    0.00%
Elapsed time = 0.73 sec. (494.31 ticks, tree = 0.01 MB, solutions = 4)

Clique cuts applied:  458
Cover cuts applied:  3
Implied bound cuts applied:  4
Mixed integer rounding cuts applied:  4
Zero-half cuts applied:  2

Root node processing (before b&c):
  Real time             =    0.75 sec. (494.71 ticks)
Parallel b&c, 4 threads:
  Real time             =    0.00 sec. (0.00 ticks)
  Sync time (average)   =    0.00 sec.
  Wait time (average)   =    0.00 sec.
                          ------------
Total (root+branch&cut) =    0.75 sec. (494.71 ticks)
